554
791
704
624
615
760
570
652
804
574
497
586
626
577
613
572
626
698
640
774
590
554
616
599
599
568
512
636
546
733
469
521
611
630
524
507
731
610
564
659
711
687
756
761
601
654
597
542
544
668
591
608
556
537
606
649
654
586
586
532
561
515
610
607
567
555
717
534
564
575
529
532
608
690
489
548
612
585
532
451
724
650
598
622
533
525
611
662
747
726
557
556
522
623
558
566
672
561
778
619
